data/solutions/planning/wellformed/moderate/highest_rank_objective/wellformed_moderate_instance79_cplex.sol
Elapsed time: 1.79
Nodes explored: 2496
Nodes left: -
Relative gap: -
Upper bound: 16443.0
Lower bound: -
C[0]=261.0
C[1]=261.0
C[2]=261.0
C[3]=261.0
C[4]=261.0
C[5]=261.0
y[0]=0
y[1]=1
y[2]=2
y[3]=4
y[4]=2
y[5]=5
y[6]=2
y[7]=2
y[8]=5
y[9]=0
y[10]=5
y[11]=0
y[12]=5
y[13]=2
y[14]=0
y[15]=4
y[16]=3
y[17]=3
y[18]=1
y[19]=3
y[20]=3
y[21]=4
y[22]=0
y[23]=5
y[24]=1
y[25]=0
y[26]=4
y[27]=1
y[28]=1
y[29]=2
