data/solutions/planning/wellformed/moderate/highest_rank_objective/wellformed_moderate_instance79_cplex.log
Found incumbent of value 1566.000000 after 0.00 sec. (0.02 ticks)
Tried aggregator 2 times.
Aggregator did 6 substitutions.
Reduced MIP has 36 rows, 181 columns, and 366 nonzeros.
Reduced MIP has 180 binaries, 0 generals, 0 SOSs, and 0 indicators.
Presolve time = 0.00 sec. (0.45 ticks)
Probing time = 0.00 sec. (0.17 ticks)
Cover probing fixed 0 vars, tightened 3 bounds.
Tried aggregator 1 time.
Reduced MIP has 36 rows, 181 columns, and 366 nonzeros.
Reduced MIP has 180 binaries, 1 generals, 0 SOSs, and 0 indicators.
Presolve time = 0.00 sec. (0.27 ticks)
Probing time = 0.00 sec. (0.11 ticks)
Clique table members: 30.
MIP emphasis: balance optimality and feasibility.
MIP search method: dynamic search.
Parallel mode: none, using 1 thread.
Root relaxation solution time = 0.00 sec. (0.34 ticks)

        Nodes                                         Cuts/
   Node  Left     Objective  IInf  Best Integer    Best Bound    ItCnt     Gap

*     0+    0                         1566.0000      100.0000            93.61%
      0     0      261.0000    10     1566.0000      261.0000       53   83.33%
*     0+    0                          299.0000      261.0000            12.71%
      0     0      261.0000    11      299.0000       Cuts: 9       60   12.71%
*     0+    0                          298.0000      261.0000            12.42%
      0     0      261.0000    14      298.0000      Cuts: 10       71   12.42%
*     0+    0                          283.0000      261.0000             7.77%
*     0+    0                          282.0000      261.0000             7.45%
*     0+    0                          275.0000      261.0000             5.09%
      0     2      261.0000     9      275.0000      261.0000       75    5.09%
Elapsed time = 0.01 sec. (8.73 ticks, tree = 0.01 MB, solutions = 6)
*    20+   18                          273.0000      261.0000             4.40%
*    40+   38                          272.0000      261.0000             4.04%
*    50+   48                          271.0000      261.0000             3.69%
*    70+   68                          270.0000      261.0000             3.33%
*    77    75      integral     0      263.0000      261.0000      327    0.76%
*   160+  137                          262.0000      261.0000             0.38%
*   560     1      integral     0      261.0000      261.0000     1247    0.00%

Cover cuts applied:  2
Gomory fractional cuts applied:  2

Root node processing (before b&c):
  Real time             =    0.01 sec. (8.74 ticks)
Sequential b&c:
  Real time             =    0.03 sec. (26.27 ticks)
                          ------------
Total (root+branch&cut) =    0.04 sec. (35.01 ticks)

Populate: phase II 
Tried aggregator 2 times.
Aggregator did 6 substitutions.
Reduced MIP has 36 rows, 181 columns, and 366 nonzeros.
Reduced MIP has 180 binaries, 0 generals, 0 SOSs, and 0 indicators.
Presolve time = 0.00 sec. (0.45 ticks)
Probing time = 0.00 sec. (0.17 ticks)
Cover probing fixed 0 vars, tightened 3 bounds.
Clique table members: 30.
MIP emphasis: balance optimality and feasibility.
MIP search method: dynamic search.
Parallel mode: none, using 1 thread.
Root relaxation solution time = 0.00 sec. (0.34 ticks)

        Nodes                                         Cuts/
   Node  Left     Objective  IInf  Best Integer    Best Bound    ItCnt     Gap

*     0+    0                          261.0000        0.0000           100.00%
      0     0      261.0000    10      261.0000      261.0000       53    0.00%
      0     2      261.0000    10      261.0000      261.0000       53    0.00%
Elapsed time = 0.01 sec. (6.43 ticks, tree = 0.01 MB, solutions = 18)
      9    11      261.0000     7      261.0000      261.0000       82    0.00%
     10    12      261.0000     7      261.0000      261.0000       83    0.00%
     11    13      261.0000     6      261.0000      261.0000       92    0.00%
     12    14      261.0000     8      261.0000      261.0000       93    0.00%
     13    15      261.0000     9      261.0000      261.0000      104    0.00%
     14    16      261.0000     8      261.0000      261.0000      106    0.00%
     15    17      261.0000     8      261.0000      261.0000      110    0.00%
     16    18      345.0000     0      261.0000      261.0000      115    0.00%
     17    19      345.0000     2      261.0000      261.0000      116    0.00%

Root node processing (before b&c):
  Real time             =    0.24 sec. (8.99 ticks)
Sequential b&c:
  Real time             =    1.50 sec. (846.70 ticks)
                          ------------
Total (root+branch&cut) =    1.74 sec. (855.69 ticks)
